data/solutions/recovery/degenerate/moderate/flexible/degenerate_moderate_instance4/23.sol
Elapsed time: 0.04
Upper bound: 6166756.0
Planning weighted value: 27497389.0
C[0]=6166756.0
C[1]=6166066.0
C[2]=0.0
y[0]=1
y[1]=1
y[2]=1
y[3]=1
y[4]=0
y[5]=0
y[6]=1
y[7]=1
y[8]=1
y[9]=0
y[10]=0
y[11]=0
y[12]=1
y[13]=0
y[14]=1
y[15]=0
y[16]=0
y[17]=1
y[18]=1
y[19]=1
y[20]=0
y[21]=1
y[22]=0
y[23]=0
y[24]=1
